Minimize
    r
Subject to
    x111 + x121 + x131 + x141 + x151 = 3
    x112 + x122 + x132 + x142 + x152 = 4
    x113 + x123 + x133 + x143 + x153 = 5
    x114 + x124 + x134 + x144 + x154 = 6
    x115 + x125 + x135 + x145 + x155 = 7
    x116 + x126 + x136 + x146 + x156 = 8
    x117 + x127 + x137 + x147 + x157 = 9
    x118 + x128 + x138 + x148 + x158 = 10
    x119 + x129 + x139 + x149 + x159 = 11
    x211 + x221 + x231 + x241 + x251 = 5
    x212 + x222 + x232 + x242 + x252 = 6
    x213 + x223 + x233 + x243 + x253 = 7
    x214 + x224 + x234 + x244 + x254 = 8
    x215 + x225 + x235 + x245 + x255 = 9
    x216 + x226 + x236 + x246 + x256 = 10
    x217 + x227 + x237 + x247 + x257 = 11
    x218 + x228 + x238 + x248 + x258 = 12
    x219 + x229 + x239 + x249 + x259 = 13
    x311 + x321 + x331 + x341 + x351 = 7
    x312 + x322 + x332 + x342 + x352 = 8
    x313 + x323 + x333 + x343 + x353 = 9
    x314 + x324 + x334 + x344 + x354 = 10
    x315 + x325 + x335 + x345 + x355 = 11
    x316 + x326 + x336 + x346 + x356 = 12
    x317 + x327 + x337 + x347 + x357 = 13
    x318 + x328 + x338 + x348 + x358 = 14
    x319 + x329 + x339 + x349 + x359 = 15
    x411 + x421 + x431 + x441 + x451 = 9
    x412 + x422 + x432 + x442 + x452 = 10
    x413 + x423 + x433 + x443 + x453 = 11
    x414 + x424 + x434 + x444 + x454 = 12
    x415 + x425 + x435 + x445 + x455 = 13
    x416 + x426 + x436 + x446 + x456 = 14
    x417 + x427 + x437 + x447 + x457 = 15
    x418 + x428 + x438 + x448 + x458 = 16
    x419 + x429 + x439 + x449 + x459 = 17
    x511 + x521 + x531 + x541 + x551 = 11
    x512 + x522 + x532 + x542 + x552 = 12
    x513 + x523 + x533 + x543 + x553 = 13
    x514 + x524 + x534 + x544 + x554 = 14
    x515 + x525 + x535 + x545 + x555 = 15
    x516 + x526 + x536 + x546 + x556 = 16
    x517 + x527 + x537 + x547 + x557 = 17
    x518 + x528 + x538 + x548 + x558 = 18
    x519 + x529 + x539 + x549 + x559 = 19
    x611 + x621 + x631 + x641 + x651 = 13
    x612 + x622 + x632 + x642 + x652 = 14
    x613 + x623 + x633 + x643 + x653 = 15
    x614 + x624 + x634 + x644 + x654 = 16
    x615 + x625 + x635 + x645 + x655 = 17
    x616 + x626 + x636 + x646 + x656 = 18
    x617 + x627 + x637 + x647 + x657 = 19
    x618 + x628 + x638 + x648 + x658 = 20
    x619 + x629 + x639 + x649 + x659 = 21
    x711 + x721 + x731 + x741 + x751 = 15
    x712 + x722 + x732 + x742 + x752 = 16
    x713 + x723 + x733 + x743 + x753 = 17
    x714 + x724 + x734 + x744 + x754 = 18
    x715 + x725 + x735 + x745 + x755 = 19
    x716 + x726 + x736 + x746 + x756 = 20
    x717 + x727 + x737 + x747 + x757 = 21
    x718 + x728 + x738 + x748 + x758 = 22
    x719 + x729 + x739 + x749 + x759 = 23
    x811 + x821 + x831 + x841 + x851 = 17
    x812 + x822 + x832 + x842 + x852 = 18
    x813 + x823 + x833 + x843 + x853 = 19
    x814 + x824 + x834 + x844 + x854 = 20
    x815 + x825 + x835 + x845 + x855 = 21
    x816 + x826 + x836 + x846 + x856 = 22
    x817 + x827 + x837 + x847 + x857 = 23
    x818 + x828 + x838 + x848 + x858 = 24
    x819 + x829 + x839 + x849 + x859 = 25
    x911 + x921 + x931 + x941 + x951 = 19
    x912 + x922 + x932 + x942 + x952 = 20
    x913 + x923 + x933 + x943 + x953 = 21
    x914 + x924 + x934 + x944 + x954 = 22
    x915 + x925 + x935 + x945 + x955 = 23
    x916 + x926 + x936 + x946 + x956 = 24
    x917 + x927 + x937 + x947 + x957 = 25
    x918 + x928 + x938 + x948 + x958 = 26
    x919 + x929 + x939 + x949 + x959 = 27
    u111 + u121 + u131 + u141 + u151 = 2
    u112 + u122 + u132 + u142 + u152 = 2
    u113 + u123 + u133 + u143 + u153 = 2
    u114 + u124 + u134 + u144 + u154 = 2
    u115 + u125 + u135 + u145 + u155 = 2
    u116 + u126 + u136 + u146 + u156 = 2
    u117 + u127 + u137 + u147 + u157 = 2
    u118 + u128 + u138 + u148 + u158 = 2
    u119 + u129 + u139 + u149 + u159 = 2
    u211 + u221 + u231 + u241 + u251 = 2
    u212 + u222 + u232 + u242 + u252 = 2
    u213 + u223 + u233 + u243 + u253 = 2
    u214 + u224 + u234 + u244 + u254 = 2
    u215 + u225 + u235 + u245 + u255 = 2
    u216 + u226 + u236 + u246 + u256 = 2
    u217 + u227 + u237 + u247 + u257 = 2
    u218 + u228 + u238 + u248 + u258 = 2
    u219 + u229 + u239 + u249 + u259 = 2
    u311 + u321 + u331 + u341 + u351 = 2
    u312 + u322 + u332 + u342 + u352 = 2
    u313 + u323 + u333 + u343 + u353 = 2
    u314 + u324 + u334 + u344 + u354 = 2
    u315 + u325 + u335 + u345 + u355 = 2
    u316 + u326 + u336 + u346 + u356 = 2
    u317 + u327 + u337 + u347 + u357 = 2
    u318 + u328 + u338 + u348 + u358 = 2
    u319 + u329 + u339 + u349 + u359 = 2
    u411 + u421 + u431 + u441 + u451 = 2
    u412 + u422 + u432 + u442 + u452 = 2
    u413 + u423 + u433 + u443 + u453 = 2
    u414 + u424 + u434 + u444 + u454 = 2
    u415 + u425 + u435 + u445 + u455 = 2
    u416 + u426 + u436 + u446 + u456 = 2
    u417 + u427 + u437 + u447 + u457 = 2
    u418 + u428 + u438 + u448 + u458 = 2
    u419 + u429 + u439 + u449 + u459 = 2
    u511 + u521 + u531 + u541 + u551 = 2
    u512 + u522 + u532 + u542 + u552 = 2
    u513 + u523 + u533 + u543 + u553 = 2
    u514 + u524 + u534 + u544 + u554 = 2
    u515 + u525 + u535 + u545 + u555 = 2
    u516 + u526 + u536 + u546 + u556 = 2
    u517 + u527 + u537 + u547 + u557 = 2
    u518 + u528 + u538 + u548 + u558 = 2
    u519 + u529 + u539 + u549 + u559 = 2
    u611 + u621 + u631 + u641 + u651 = 2
    u612 + u622 + u632 + u642 + u652 = 2
    u613 + u623 + u633 + u643 + u653 = 2
    u614 + u624 + u634 + u644 + u654 = 2
    u615 + u625 + u635 + u645 + u655 = 2
    u616 + u626 + u636 + u646 + u656 = 2
    u617 + u627 + u637 + u647 + u657 = 2
    u618 + u628 + u638 + u648 + u658 = 2
    u619 + u629 + u639 + u649 + u659 = 2
    u711 + u721 + u731 + u741 + u751 = 2
    u712 + u722 + u732 + u742 + u752 = 2
    u713 + u723 + u733 + u743 + u753 = 2
    u714 + u724 + u734 + u744 + u754 = 2
    u715 + u725 + u735 + u745 + u755 = 2
    u716 + u726 + u736 + u746 + u756 = 2
    u717 + u727 + u737 + u747 + u757 = 2
    u718 + u728 + u738 + u748 + u758 = 2
    u719 + u729 + u739 + u749 + u759 = 2
    u811 + u821 + u831 + u841 + u851 = 2
    u812 + u822 + u832 + u842 + u852 = 2
    u813 + u823 + u833 + u843 + u853 = 2
    u814 + u824 + u834 + u844 + u854 = 2
    u815 + u825 + u835 + u845 + u855 = 2
    u816 + u826 + u836 + u846 + u856 = 2
    u817 + u827 + u837 + u847 + u857 = 2
    u818 + u828 + u838 + u848 + u858 = 2
    u819 + u829 + u839 + u849 + u859 = 2
    u911 + u921 + u931 + u941 + u951 = 2
    u912 + u922 + u932 + u942 + u952 = 2
    u913 + u923 + u933 + u943 + u953 = 2
    u914 + u924 + u934 + u944 + u954 = 2
    u915 + u925 + u935 + u945 + u955 = 2
    u916 + u926 + u936 + u946 + u956 = 2
    u917 + u927 + u937 + u947 + u957 = 2
    u918 + u928 + u938 + u948 + u958 = 2
    u919 + u929 + u939 + u949 + u959 = 2
    x111 + x112 + x113 + x114 + x115 + x116 + x117 + x118 + x119 - c11 <= 0
    x121 + x122 + x123 + x124 + x125 + x126 + x127 + x128 + x129 - c12 <= 0
    x131 + x132 + x133 + x134 + x135 + x136 + x137 + x138 + x139 - c13 <= 0
    x141 + x142 + x143 + x144 + x145 + x146 + x147 + x148 + x149 - c14 <= 0
    x151 + x152 + x153 + x154 + x155 + x156 + x157 + x158 + x159 - c15 <= 0
    x211 + x212 + x213 + x214 + x215 + x216 + x217 + x218 + x219 - c21 <= 0
    x221 + x222 + x223 + x224 + x225 + x226 + x227 + x228 + x229 - c22 <= 0
    x231 + x232 + x233 + x234 + x235 + x236 + x237 + x238 + x239 - c23 <= 0
    x241 + x242 + x243 + x244 + x245 + x246 + x247 + x248 + x249 - c24 <= 0
    x251 + x252 + x253 + x254 + x255 + x256 + x257 + x258 + x259 - c25 <= 0
    x311 + x312 + x313 + x314 + x315 + x316 + x317 + x318 + x319 - c31 <= 0
    x321 + x322 + x323 + x324 + x325 + x326 + x327 + x328 + x329 - c32 <= 0
    x331 + x332 + x333 + x334 + x335 + x336 + x337 + x338 + x339 - c33 <= 0
    x341 + x342 + x343 + x344 + x345 + x346 + x347 + x348 + x349 - c34 <= 0
    x351 + x352 + x353 + x354 + x355 + x356 + x357 + x358 + x359 - c35 <= 0
    x411 + x412 + x413 + x414 + x415 + x416 + x417 + x418 + x419 - c41 <= 0
    x421 + x422 + x423 + x424 + x425 + x426 + x427 + x428 + x429 - c42 <= 0
    x431 + x432 + x433 + x434 + x435 + x436 + x437 + x438 + x439 - c43 <= 0
    x441 + x442 + x443 + x444 + x445 + x446 + x447 + x448 + x449 - c44 <= 0
    x451 + x452 + x453 + x454 + x455 + x456 + x457 + x458 + x459 - c45 <= 0
    x511 + x512 + x513 + x514 + x515 + x516 + x517 + x518 + x519 - c51 <= 0
    x521 + x522 + x523 + x524 + x525 + x526 + x527 + x528 + x529 - c52 <= 0
    x531 + x532 + x533 + x534 + x535 + x536 + x537 + x538 + x539 - c53 <= 0
    x541 + x542 + x543 + x544 + x545 + x546 + x547 + x548 + x549 - c54 <= 0
    x551 + x552 + x553 + x554 + x555 + x556 + x557 + x558 + x559 - c55 <= 0
    x611 + x612 + x613 + x614 + x615 + x616 + x617 + x618 + x619 - c61 <= 0
    x621 + x622 + x623 + x624 + x625 + x626 + x627 + x628 + x629 - c62 <= 0
    x631 + x632 + x633 + x634 + x635 + x636 + x637 + x638 + x639 - c63 <= 0
    x641 + x642 + x643 + x644 + x645 + x646 + x647 + x648 + x649 - c64 <= 0
    x651 + x652 + x653 + x654 + x655 + x656 + x657 + x658 + x659 - c65 <= 0
    x711 + x712 + x713 + x714 + x715 + x716 + x717 + x718 + x719 - c71 <= 0
    x721 + x722 + x723 + x724 + x725 + x726 + x727 + x728 + x729 - c72 <= 0
    x731 + x732 + x733 + x734 + x735 + x736 + x737 + x738 + x739 - c73 <= 0
    x741 + x742 + x743 + x744 + x745 + x746 + x747 + x748 + x749 - c74 <= 0
    x751 + x752 + x753 + x754 + x755 + x756 + x757 + x758 + x759 - c75 <= 0
    x811 + x812 + x813 + x814 + x815 + x816 + x817 + x818 + x819 - c81 <= 0
    x821 + x822 + x823 + x824 + x825 + x826 + x827 + x828 + x829 - c82 <= 0
    x831 + x832 + x833 + x834 + x835 + x836 + x837 + x838 + x839 - c83 <= 0
    x841 + x842 + x843 + x844 + x845 + x846 + x847 + x848 + x849 - c84 <= 0
    x851 + x852 + x853 + x854 + x855 + x856 + x857 + x858 + x859 - c85 <= 0
    x911 + x912 + x913 + x914 + x915 + x916 + x917 + x918 + x919 - c91 <= 0
    x921 + x922 + x923 + x924 + x925 + x926 + x927 + x928 + x929 - c92 <= 0
    x931 + x932 + x933 + x934 + x935 + x936 + x937 + x938 + x939 - c93 <= 0
    x941 + x942 + x943 + x944 + x945 + x946 + x947 + x948 + x949 - c94 <= 0
    x951 + x952 + x953 + x954 + x955 + x956 + x957 + x958 + x959 - c95 <= 0
    x111 + x211 + x311 + x411 + x511 + x611 + x711 + x811 + x911 - d11 <= 0
    x112 + x212 + x312 + x412 + x512 + x612 + x712 + x812 + x912 - d12 <= 0
    x113 + x213 + x313 + x413 + x513 + x613 + x713 + x813 + x913 - d13 <= 0
    x114 + x214 + x314 + x414 + x514 + x614 + x714 + x814 + x914 - d14 <= 0
    x115 + x215 + x315 + x415 + x515 + x615 + x715 + x815 + x915 - d15 <= 0
    x116 + x216 + x316 + x416 + x516 + x616 + x716 + x816 + x916 - d16 <= 0
    x117 + x217 + x317 + x417 + x517 + x617 + x717 + x817 + x917 - d17 <= 0
    x118 + x218 + x318 + x418 + x518 + x618 + x718 + x818 + x918 - d18 <= 0
    x119 + x219 + x319 + x419 + x519 + x619 + x719 + x819 + x919 - d19 <= 0
    x121 + x221 + x321 + x421 + x521 + x621 + x721 + x821 + x921 - d21 <= 0
    x122 + x222 + x322 + x422 + x522 + x622 + x722 + x822 + x922 - d22 <= 0
    x123 + x223 + x323 + x423 + x523 + x623 + x723 + x823 + x923 - d23 <= 0
    x124 + x224 + x324 + x424 + x524 + x624 + x724 + x824 + x924 - d24 <= 0
    x125 + x225 + x325 + x425 + x525 + x625 + x725 + x825 + x925 - d25 <= 0
    x126 + x226 + x326 + x426 + x526 + x626 + x726 + x826 + x926 - d26 <= 0
    x127 + x227 + x327 + x427 + x527 + x627 + x727 + x827 + x927 - d27 <= 0
    x128 + x228 + x328 + x428 + x528 + x628 + x728 + x828 + x928 - d28 <= 0
    x129 + x229 + x329 + x429 + x529 + x629 + x729 + x829 + x929 - d29 <= 0
    x131 + x231 + x331 + x431 + x531 + x631 + x731 + x831 + x931 - d31 <= 0
    x132 + x232 + x332 + x432 + x532 + x632 + x732 + x832 + x932 - d32 <= 0
    x133 + x233 + x333 + x433 + x533 + x633 + x733 + x833 + x933 - d33 <= 0
    x134 + x234 + x334 + x434 + x534 + x634 + x734 + x834 + x934 - d34 <= 0
    x135 + x235 + x335 + x435 + x535 + x635 + x735 + x835 + x935 - d35 <= 0
    x136 + x236 + x336 + x436 + x536 + x636 + x736 + x836 + x936 - d36 <= 0
    x137 + x237 + x337 + x437 + x537 + x637 + x737 + x837 + x937 - d37 <= 0
    x138 + x238 + x338 + x438 + x538 + x638 + x738 + x838 + x938 - d38 <= 0
    x139 + x239 + x339 + x439 + x539 + x639 + x739 + x839 + x939 - d39 <= 0
    x141 + x241 + x341 + x441 + x541 + x641 + x741 + x841 + x941 - d41 <= 0
    x142 + x242 + x342 + x442 + x542 + x642 + x742 + x842 + x942 - d42 <= 0
    x143 + x243 + x343 + x443 + x543 + x643 + x743 + x843 + x943 - d43 <= 0
    x144 + x244 + x344 + x444 + x544 + x644 + x744 + x844 + x944 - d44 <= 0
    x145 + x245 + x345 + x445 + x545 + x645 + x745 + x845 + x945 - d45 <= 0
    x146 + x246 + x346 + x446 + x546 + x646 + x746 + x846 + x946 - d46 <= 0
    x147 + x247 + x347 + x447 + x547 + x647 + x747 + x847 + x947 - d47 <= 0
    x148 + x248 + x348 + x448 + x548 + x648 + x748 + x848 + x948 - d48 <= 0
    x149 + x249 + x349 + x449 + x549 + x649 + x749 + x849 + x949 - d49 <= 0
    x151 + x251 + x351 + x451 + x551 + x651 + x751 + x851 + x951 - d51 <= 0
    x152 + x252 + x352 + x452 + x552 + x652 + x752 + x852 + x952 - d52 <= 0
    x153 + x253 + x353 + x453 + x553 + x653 + x753 + x853 + x953 - d53 <= 0
    x154 + x254 + x354 + x454 + x554 + x654 + x754 + x854 + x954 - d54 <= 0
    x155 + x255 + x355 + x455 + x555 + x655 + x755 + x855 + x955 - d55 <= 0
    x156 + x256 + x356 + x456 + x556 + x656 + x756 + x856 + x956 - d56 <= 0
    x157 + x257 + x357 + x457 + x557 + x657 + x757 + x857 + x957 - d57 <= 0
    x158 + x258 + x358 + x458 + x558 + x658 + x758 + x858 + x958 - d58 <= 0
    x159 + x259 + x359 + x459 + x559 + x659 + x759 + x859 + x959 - d59 <= 0
    2 x111 - 3 u111 = 0
    2 x112 - 4 u112 = 0
    2 x113 - 5 u113 = 0
    2 x114 - 6 u114 = 0
    2 x115 - 7 u115 = 0
    2 x116 - 8 u116 = 0
    2 x117 - 9 u117 = 0
    2 x118 - 10 u118 = 0
    2 x119 - 11 u119 = 0
    2 x121 - 3 u121 = 0
    2 x122 - 4 u122 = 0
    2 x123 - 5 u123 = 0
    2 x124 - 6 u124 = 0
    2 x125 - 7 u125 = 0
    2 x126 - 8 u126 = 0
    2 x127 - 9 u127 = 0
    2 x128 - 10 u128 = 0
    2 x129 - 11 u129 = 0
    2 x131 - 3 u131 = 0
    2 x132 - 4 u132 = 0
    2 x133 - 5 u133 = 0
    2 x134 - 6 u134 = 0
    2 x135 - 7 u135 = 0
    2 x136 - 8 u136 = 0
    2 x137 - 9 u137 = 0
    2 x138 - 10 u138 = 0
    2 x139 - 11 u139 = 0
    2 x141 - 3 u141 = 0
    2 x142 - 4 u142 = 0
    2 x143 - 5 u143 = 0
    2 x144 - 6 u144 = 0
    2 x145 - 7 u145 = 0
    2 x146 - 8 u146 = 0
    2 x147 - 9 u147 = 0
    2 x148 - 10 u148 = 0
    2 x149 - 11 u149 = 0
    2 x151 - 3 u151 = 0
    2 x152 - 4 u152 = 0
    2 x153 - 5 u153 = 0
    2 x154 - 6 u154 = 0
    2 x155 - 7 u155 = 0
    2 x156 - 8 u156 = 0
    2 x157 - 9 u157 = 0
    2 x158 - 10 u158 = 0
    2 x159 - 11 u159 = 0
    2 x211 - 5 u211 = 0
    2 x212 - 6 u212 = 0
    2 x213 - 7 u213 = 0
    2 x214 - 8 u214 = 0
    2 x215 - 9 u215 = 0
    2 x216 - 10 u216 = 0
    2 x217 - 11 u217 = 0
    2 x218 - 12 u218 = 0
    2 x219 - 13 u219 = 0
    2 x221 - 5 u221 = 0
    2 x222 - 6 u222 = 0
    2 x223 - 7 u223 = 0
    2 x224 - 8 u224 = 0
    2 x225 - 9 u225 = 0
    2 x226 - 10 u226 = 0
    2 x227 - 11 u227 = 0
    2 x228 - 12 u228 = 0
    2 x229 - 13 u229 = 0
    2 x231 - 5 u231 = 0
    2 x232 - 6 u232 = 0
    2 x233 - 7 u233 = 0
    2 x234 - 8 u234 = 0
    2 x235 - 9 u235 = 0
    2 x236 - 10 u236 = 0
    2 x237 - 11 u237 = 0
    2 x238 - 12 u238 = 0
    2 x239 - 13 u239 = 0
    2 x241 - 5 u241 = 0
    2 x242 - 6 u242 = 0
    2 x243 - 7 u243 = 0
    2 x244 - 8 u244 = 0
    2 x245 - 9 u245 = 0
    2 x246 - 10 u246 = 0
    2 x247 - 11 u247 = 0
    2 x248 - 12 u248 = 0
    2 x249 - 13 u249 = 0
    2 x251 - 5 u251 = 0
    2 x252 - 6 u252 = 0
    2 x253 - 7 u253 = 0
    2 x254 - 8 u254 = 0
    2 x255 - 9 u255 = 0
    2 x256 - 10 u256 = 0
    2 x257 - 11 u257 = 0
    2 x258 - 12 u258 = 0
    2 x259 - 13 u259 = 0
    2 x311 - 7 u311 = 0
    2 x312 - 8 u312 = 0
    2 x313 - 9 u313 = 0
    2 x314 - 10 u314 = 0
    2 x315 - 11 u315 = 0
    2 x316 - 12 u316 = 0
    2 x317 - 13 u317 = 0
    2 x318 - 14 u318 = 0
    2 x319 - 15 u319 = 0
    2 x321 - 7 u321 = 0
    2 x322 - 8 u322 = 0
    2 x323 - 9 u323 = 0
    2 x324 - 10 u324 = 0
    2 x325 - 11 u325 = 0
    2 x326 - 12 u326 = 0
    2 x327 - 13 u327 = 0
    2 x328 - 14 u328 = 0
    2 x329 - 15 u329 = 0
    2 x331 - 7 u331 = 0
    2 x332 - 8 u332 = 0
    2 x333 - 9 u333 = 0
    2 x334 - 10 u334 = 0
    2 x335 - 11 u335 = 0
    2 x336 - 12 u336 = 0
    2 x337 - 13 u337 = 0
    2 x338 - 14 u338 = 0
    2 x339 - 15 u339 = 0
    2 x341 - 7 u341 = 0
    2 x342 - 8 u342 = 0
    2 x343 - 9 u343 = 0
    2 x344 - 10 u344 = 0
    2 x345 - 11 u345 = 0
    2 x346 - 12 u346 = 0
    2 x347 - 13 u347 = 0
    2 x348 - 14 u348 = 0
    2 x349 - 15 u349 = 0
    2 x351 - 7 u351 = 0
    2 x352 - 8 u352 = 0
    2 x353 - 9 u353 = 0
    2 x354 - 10 u354 = 0
    2 x355 - 11 u355 = 0
    2 x356 - 12 u356 = 0
    2 x357 - 13 u357 = 0
    2 x358 - 14 u358 = 0
    2 x359 - 15 u359 = 0
    2 x411 - 9 u411 = 0
    2 x412 - 10 u412 = 0
    2 x413 - 11 u413 = 0
    2 x414 - 12 u414 = 0
    2 x415 - 13 u415 = 0
    2 x416 - 14 u416 = 0
    2 x417 - 15 u417 = 0
    2 x418 - 16 u418 = 0
    2 x419 - 17 u419 = 0
    2 x421 - 9 u421 = 0
    2 x422 - 10 u422 = 0
    2 x423 - 11 u423 = 0
    2 x424 - 12 u424 = 0
    2 x425 - 13 u425 = 0
    2 x426 - 14 u426 = 0
    2 x427 - 15 u427 = 0
    2 x428 - 16 u428 = 0
    2 x429 - 17 u429 = 0
    2 x431 - 9 u431 = 0
    2 x432 - 10 u432 = 0
    2 x433 - 11 u433 = 0
    2 x434 - 12 u434 = 0
    2 x435 - 13 u435 = 0
    2 x436 - 14 u436 = 0
    2 x437 - 15 u437 = 0
    2 x438 - 16 u438 = 0
    2 x439 - 17 u439 = 0
    2 x441 - 9 u441 = 0
    2 x442 - 10 u442 = 0
    2 x443 - 11 u443 = 0
    2 x444 - 12 u444 = 0
    2 x445 - 13 u445 = 0
    2 x446 - 14 u446 = 0
    2 x447 - 15 u447 = 0
    2 x448 - 16 u448 = 0
    2 x449 - 17 u449 = 0
    2 x451 - 9 u451 = 0
    2 x452 - 10 u452 = 0
    2 x453 - 11 u453 = 0
    2 x454 - 12 u454 = 0
    2 x455 - 13 u455 = 0
    2 x456 - 14 u456 = 0
    2 x457 - 15 u457 = 0
    2 x458 - 16 u458 = 0
    2 x459 - 17 u459 = 0
    2 x511 - 11 u511 = 0
    2 x512 - 12 u512 = 0
    2 x513 - 13 u513 = 0
    2 x514 - 14 u514 = 0
    2 x515 - 15 u515 = 0
    2 x516 - 16 u516 = 0
    2 x517 - 17 u517 = 0
    2 x518 - 18 u518 = 0
    2 x519 - 19 u519 = 0
    2 x521 - 11 u521 = 0
    2 x522 - 12 u522 = 0
    2 x523 - 13 u523 = 0
    2 x524 - 14 u524 = 0
    2 x525 - 15 u525 = 0
    2 x526 - 16 u526 = 0
    2 x527 - 17 u527 = 0
    2 x528 - 18 u528 = 0
    2 x529 - 19 u529 = 0
    2 x531 - 11 u531 = 0
    2 x532 - 12 u532 = 0
    2 x533 - 13 u533 = 0
    2 x534 - 14 u534 = 0
    2 x535 - 15 u535 = 0
    2 x536 - 16 u536 = 0
    2 x537 - 17 u537 = 0
    2 x538 - 18 u538 = 0
    2 x539 - 19 u539 = 0
    2 x541 - 11 u541 = 0
    2 x542 - 12 u542 = 0
    2 x543 - 13 u543 = 0
    2 x544 - 14 u544 = 0
    2 x545 - 15 u545 = 0
    2 x546 - 16 u546 = 0
    2 x547 - 17 u547 = 0
    2 x548 - 18 u548 = 0
    2 x549 - 19 u549 = 0
    2 x551 - 11 u551 = 0
    2 x552 - 12 u552 = 0
    2 x553 - 13 u553 = 0
    2 x554 - 14 u554 = 0
    2 x555 - 15 u555 = 0
    2 x556 - 16 u556 = 0
    2 x557 - 17 u557 = 0
    2 x558 - 18 u558 = 0
    2 x559 - 19 u559 = 0
    2 x611 - 13 u611 = 0
    2 x612 - 14 u612 = 0
    2 x613 - 15 u613 = 0
    2 x614 - 16 u614 = 0
    2 x615 - 17 u615 = 0
    2 x616 - 18 u616 = 0
    2 x617 - 19 u617 = 0
    2 x618 - 20 u618 = 0
    2 x619 - 21 u619 = 0
    2 x621 - 13 u621 = 0
    2 x622 - 14 u622 = 0
    2 x623 - 15 u623 = 0
    2 x624 - 16 u624 = 0
    2 x625 - 17 u625 = 0
    2 x626 - 18 u626 = 0
    2 x627 - 19 u627 = 0
    2 x628 - 20 u628 = 0
    2 x629 - 21 u629 = 0
    2 x631 - 13 u631 = 0
    2 x632 - 14 u632 = 0
    2 x633 - 15 u633 = 0
    2 x634 - 16 u634 = 0
    2 x635 - 17 u635 = 0
    2 x636 - 18 u636 = 0
    2 x637 - 19 u637 = 0
    2 x638 - 20 u638 = 0
    2 x639 - 21 u639 = 0
    2 x641 - 13 u641 = 0
    2 x642 - 14 u642 = 0
    2 x643 - 15 u643 = 0
    2 x644 - 16 u644 = 0
    2 x645 - 17 u645 = 0
    2 x646 - 18 u646 = 0
    2 x647 - 19 u647 = 0
    2 x648 - 20 u648 = 0
    2 x649 - 21 u649 = 0
    2 x651 - 13 u651 = 0
    2 x652 - 14 u652 = 0
    2 x653 - 15 u653 = 0
    2 x654 - 16 u654 = 0
    2 x655 - 17 u655 = 0
    2 x656 - 18 u656 = 0
    2 x657 - 19 u657 = 0
    2 x658 - 20 u658 = 0
    2 x659 - 21 u659 = 0
    2 x711 - 15 u711 = 0
    2 x712 - 16 u712 = 0
    2 x713 - 17 u713 = 0
    2 x714 - 18 u714 = 0
    2 x715 - 19 u715 = 0
    2 x716 - 20 u716 = 0
    2 x717 - 21 u717 = 0
    2 x718 - 22 u718 = 0
    2 x719 - 23 u719 = 0
    2 x721 - 15 u721 = 0
    2 x722 - 16 u722 = 0
    2 x723 - 17 u723 = 0
    2 x724 - 18 u724 = 0
    2 x725 - 19 u725 = 0
    2 x726 - 20 u726 = 0
    2 x727 - 21 u727 = 0
    2 x728 - 22 u728 = 0
    2 x729 - 23 u729 = 0
    2 x731 - 15 u731 = 0
    2 x732 - 16 u732 = 0
    2 x733 - 17 u733 = 0
    2 x734 - 18 u734 = 0
    2 x735 - 19 u735 = 0
    2 x736 - 20 u736 = 0
    2 x737 - 21 u737 = 0
    2 x738 - 22 u738 = 0
    2 x739 - 23 u739 = 0
    2 x741 - 15 u741 = 0
    2 x742 - 16 u742 = 0
    2 x743 - 17 u743 = 0
    2 x744 - 18 u744 = 0
    2 x745 - 19 u745 = 0
    2 x746 - 20 u746 = 0
    2 x747 - 21 u747 = 0
    2 x748 - 22 u748 = 0
    2 x749 - 23 u749 = 0
    2 x751 - 15 u751 = 0
    2 x752 - 16 u752 = 0
    2 x753 - 17 u753 = 0
    2 x754 - 18 u754 = 0
    2 x755 - 19 u755 = 0
    2 x756 - 20 u756 = 0
    2 x757 - 21 u757 = 0
    2 x758 - 22 u758 = 0
    2 x759 - 23 u759 = 0
    2 x811 - 17 u811 = 0
    2 x812 - 18 u812 = 0
    2 x813 - 19 u813 = 0
    2 x814 - 20 u814 = 0
    2 x815 - 21 u815 = 0
    2 x816 - 22 u816 = 0
    2 x817 - 23 u817 = 0
    2 x818 - 24 u818 = 0
    2 x819 - 25 u819 = 0
    2 x821 - 17 u821 = 0
    2 x822 - 18 u822 = 0
    2 x823 - 19 u823 = 0
    2 x824 - 20 u824 = 0
    2 x825 - 21 u825 = 0
    2 x826 - 22 u826 = 0
    2 x827 - 23 u827 = 0
    2 x828 - 24 u828 = 0
    2 x829 - 25 u829 = 0
    2 x831 - 17 u831 = 0
    2 x832 - 18 u832 = 0
    2 x833 - 19 u833 = 0
    2 x834 - 20 u834 = 0
    2 x835 - 21 u835 = 0
    2 x836 - 22 u836 = 0
    2 x837 - 23 u837 = 0
    2 x838 - 24 u838 = 0
    2 x839 - 25 u839 = 0
    2 x841 - 17 u841 = 0
    2 x842 - 18 u842 = 0
    2 x843 - 19 u843 = 0
    2 x844 - 20 u844 = 0
    2 x845 - 21 u845 = 0
    2 x846 - 22 u846 = 0
    2 x847 - 23 u847 = 0
    2 x848 - 24 u848 = 0
    2 x849 - 25 u849 = 0
    2 x851 - 17 u851 = 0
    2 x852 - 18 u852 = 0
    2 x853 - 19 u853 = 0
    2 x854 - 20 u854 = 0
    2 x855 - 21 u855 = 0
    2 x856 - 22 u856 = 0
    2 x857 - 23 u857 = 0
    2 x858 - 24 u858 = 0
    2 x859 - 25 u859 = 0
    2 x911 - 19 u911 = 0
    2 x912 - 20 u912 = 0
    2 x913 - 21 u913 = 0
    2 x914 - 22 u914 = 0
    2 x915 - 23 u915 = 0
    2 x916 - 24 u916 = 0
    2 x917 - 25 u917 = 0
    2 x918 - 26 u918 = 0
    2 x919 - 27 u919 = 0
    2 x921 - 19 u921 = 0
    2 x922 - 20 u922 = 0
    2 x923 - 21 u923 = 0
    2 x924 - 22 u924 = 0
    2 x925 - 23 u925 = 0
    2 x926 - 24 u926 = 0
    2 x927 - 25 u927 = 0
    2 x928 - 26 u928 = 0
    2 x929 - 27 u929 = 0
    2 x931 - 19 u931 = 0
    2 x932 - 20 u932 = 0
    2 x933 - 21 u933 = 0
    2 x934 - 22 u934 = 0
    2 x935 - 23 u935 = 0
    2 x936 - 24 u936 = 0
    2 x937 - 25 u937 = 0
    2 x938 - 26 u938 = 0
    2 x939 - 27 u939 = 0
    2 x941 - 19 u941 = 0
    2 x942 - 20 u942 = 0
    2 x943 - 21 u943 = 0
    2 x944 - 22 u944 = 0
    2 x945 - 23 u945 = 0
    2 x946 - 24 u946 = 0
    2 x947 - 25 u947 = 0
    2 x948 - 26 u948 = 0
    2 x949 - 27 u949 = 0
    2 x951 - 19 u951 = 0
    2 x952 - 20 u952 = 0
    2 x953 - 21 u953 = 0
    2 x954 - 22 u954 = 0
    2 x955 - 23 u955 = 0
    2 x956 - 24 u956 = 0
    2 x957 - 25 u957 = 0
    2 x958 - 26 u958 = 0
    2 x959 - 27 u959 = 0
    x111 + x112 + x113 + x114 + x115 + x116 + x117 + x118 + x119 + x211 + x212 + x213 + x214 + x215 + x216 + x217 + x218 + x219 + x311 + x312 + x313 + x314 + x315 + x316 + x317 + x318 + x319 + x411 + x412 + x413 + x414 + x415 + x416 + x417 + x418 + x419 + x511 + x512 + x513 + x514 + x515 + x516 + x517 + x518 + x519 + x611 + x612 + x613 + x614 + x615 + x616 + x617 + x618 + x619 + x711 + x712 + x713 + x714 + x715 + x716 + x717 + x718 + x719 + x811 + x812 + x813 + x814 + x815 + x816 + x817 + x818 + x819 + x911 + x912 + x913 + x914 + x915 + x916 + x917 + x918 + x919 - r <= 0
    x121 + x122 + x123 + x124 + x125 + x126 + x127 + x128 + x129 + x221 + x222 + x223 + x224 + x225 + x226 + x227 + x228 + x229 + x321 + x322 + x323 + x324 + x325 + x326 + x327 + x328 + x329 + x421 + x422 + x423 + x424 + x425 + x426 + x427 + x428 + x429 + x521 + x522 + x523 + x524 + x525 + x526 + x527 + x528 + x529 + x621 + x622 + x623 + x624 + x625 + x626 + x627 + x628 + x629 + x721 + x722 + x723 + x724 + x725 + x726 + x727 + x728 + x729 + x821 + x822 + x823 + x824 + x825 + x826 + x827 + x828 + x829 + x921 + x922 + x923 + x924 + x925 + x926 + x927 + x928 + x929 - r <= 0
    x131 + x132 + x133 + x134 + x135 + x136 + x137 + x138 + x139 + x231 + x232 + x233 + x234 + x235 + x236 + x237 + x238 + x239 + x331 + x332 + x333 + x334 + x335 + x336 + x337 + x338 + x339 + x431 + x432 + x433 + x434 + x435 + x436 + x437 + x438 + x439 + x531 + x532 + x533 + x534 + x535 + x536 + x537 + x538 + x539 + x631 + x632 + x633 + x634 + x635 + x636 + x637 + x638 + x639 + x731 + x732 + x733 + x734 + x735 + x736 + x737 + x738 + x739 + x831 + x832 + x833 + x834 + x835 + x836 + x837 + x838 + x839 + x931 + x932 + x933 + x934 + x935 + x936 + x937 + x938 + x939 - r <= 0
    x141 + x142 + x143 + x144 + x145 + x146 + x147 + x148 + x149 + x241 + x242 + x243 + x244 + x245 + x246 + x247 + x248 + x249 + x341 + x342 + x343 + x344 + x345 + x346 + x347 + x348 + x349 + x441 + x442 + x443 + x444 + x445 + x446 + x447 + x448 + x449 + x541 + x542 + x543 + x544 + x545 + x546 + x547 + x548 + x549 + x641 + x642 + x643 + x644 + x645 + x646 + x647 + x648 + x649 + x741 + x742 + x743 + x744 + x745 + x746 + x747 + x748 + x749 + x841 + x842 + x843 + x844 + x845 + x846 + x847 + x848 + x849 + x941 + x942 + x943 + x944 + x945 + x946 + x947 + x948 + x949 - r <= 0
    x151 + x152 + x153 + x154 + x155 + x156 + x157 + x158 + x159 + x251 + x252 + x253 + x254 + x255 + x256 + x257 + x258 + x259 + x351 + x352 + x353 + x354 + x355 + x356 + x357 + x358 + x359 + x451 + x452 + x453 + x454 + x455 + x456 + x457 + x458 + x459 + x551 + x552 + x553 + x554 + x555 + x556 + x557 + x558 + x559 + x651 + x652 + x653 + x654 + x655 + x656 + x657 + x658 + x659 + x751 + x752 + x753 + x754 + x755 + x756 + x757 + x758 + x759 + x851 + x852 + x853 + x854 + x855 + x856 + x857 + x858 + x859 + x951 + x952 + x953 + x954 + x955 + x956 + x957 + x958 + x959 - r <= 0
Bounds
    x111 >= 0
    x112 >= 0
    x113 >= 0
    x114 >= 0
    x115 >= 0
    x116 >= 0
    x117 >= 0
    x118 >= 0
    x119 >= 0
    x121 >= 0
    x122 >= 0
    x123 >= 0
    x124 >= 0
    x125 >= 0
    x126 >= 0
    x127 >= 0
    x128 >= 0
    x129 >= 0
    x131 >= 0
    x132 >= 0
    x133 >= 0
    x134 >= 0
    x135 >= 0
    x136 >= 0
    x137 >= 0
    x138 >= 0
    x139 >= 0
    x141 >= 0
    x142 >= 0
    x143 >= 0
    x144 >= 0
    x145 >= 0
    x146 >= 0
    x147 >= 0
    x148 >= 0
    x149 >= 0
    x151 >= 0
    x152 >= 0
    x153 >= 0
    x154 >= 0
    x155 >= 0
    x156 >= 0
    x157 >= 0
    x158 >= 0
    x159 >= 0
    x211 >= 0
    x212 >= 0
    x213 >= 0
    x214 >= 0
    x215 >= 0
    x216 >= 0
    x217 >= 0
    x218 >= 0
    x219 >= 0
    x221 >= 0
    x222 >= 0
    x223 >= 0
    x224 >= 0
    x225 >= 0
    x226 >= 0
    x227 >= 0
    x228 >= 0
    x229 >= 0
    x231 >= 0
    x232 >= 0
    x233 >= 0
    x234 >= 0
    x235 >= 0
    x236 >= 0
    x237 >= 0
    x238 >= 0
    x239 >= 0
    x241 >= 0
    x242 >= 0
    x243 >= 0
    x244 >= 0
    x245 >= 0
    x246 >= 0
    x247 >= 0
    x248 >= 0
    x249 >= 0
    x251 >= 0
    x252 >= 0
    x253 >= 0
    x254 >= 0
    x255 >= 0
    x256 >= 0
    x257 >= 0
    x258 >= 0
    x259 >= 0
    x311 >= 0
    x312 >= 0
    x313 >= 0
    x314 >= 0
    x315 >= 0
    x316 >= 0
    x317 >= 0
    x318 >= 0
    x319 >= 0
    x321 >= 0
    x322 >= 0
    x323 >= 0
    x324 >= 0
    x325 >= 0
    x326 >= 0
    x327 >= 0
    x328 >= 0
    x329 >= 0
    x331 >= 0
    x332 >= 0
    x333 >= 0
    x334 >= 0
    x335 >= 0
    x336 >= 0
    x337 >= 0
    x338 >= 0
    x339 >= 0
    x341 >= 0
    x342 >= 0
    x343 >= 0
    x344 >= 0
    x345 >= 0
    x346 >= 0
    x347 >= 0
    x348 >= 0
    x349 >= 0
    x351 >= 0
    x352 >= 0
    x353 >= 0
    x354 >= 0
    x355 >= 0
    x356 >= 0
    x357 >= 0
    x358 >= 0
    x359 >= 0
    x411 >= 0
    x412 >= 0
    x413 >= 0
    x414 >= 0
    x415 >= 0
    x416 >= 0
    x417 >= 0
    x418 >= 0
    x419 >= 0
    x421 >= 0
    x422 >= 0
    x423 >= 0
    x424 >= 0
    x425 >= 0
    x426 >= 0
    x427 >= 0
    x428 >= 0
    x429 >= 0
    x431 >= 0
    x432 >= 0
    x433 >= 0
    x434 >= 0
    x435 >= 0
    x436 >= 0
    x437 >= 0
    x438 >= 0
    x439 >= 0
    x441 >= 0
    x442 >= 0
    x443 >= 0
    x444 >= 0
    x445 >= 0
    x446 >= 0
    x447 >= 0
    x448 >= 0
    x449 >= 0
    x451 >= 0
    x452 >= 0
    x453 >= 0
    x454 >= 0
    x455 >= 0
    x456 >= 0
    x457 >= 0
    x458 >= 0
    x459 >= 0
    x511 >= 0
    x512 >= 0
    x513 >= 0
    x514 >= 0
    x515 >= 0
    x516 >= 0
    x517 >= 0
    x518 >= 0
    x519 >= 0
    x521 >= 0
    x522 >= 0
    x523 >= 0
    x524 >= 0
    x525 >= 0
    x526 >= 0
    x527 >= 0
    x528 >= 0
    x529 >= 0
    x531 >= 0
    x532 >= 0
    x533 >= 0
    x534 >= 0
    x535 >= 0
    x536 >= 0
    x537 >= 0
    x538 >= 0
    x539 >= 0
    x541 >= 0
    x542 >= 0
    x543 >= 0
    x544 >= 0
    x545 >= 0
    x546 >= 0
    x547 >= 0
    x548 >= 0
    x549 >= 0
    x551 >= 0
    x552 >= 0
    x553 >= 0
    x554 >= 0
    x555 >= 0
    x556 >= 0
    x557 >= 0
    x558 >= 0
    x559 >= 0
    x611 >= 0
    x612 >= 0
    x613 >= 0
    x614 >= 0
    x615 >= 0
    x616 >= 0
    x617 >= 0
    x618 >= 0
    x619 >= 0
    x621 >= 0
    x622 >= 0
    x623 >= 0
    x624 >= 0
    x625 >= 0
    x626 >= 0
    x627 >= 0
    x628 >= 0
    x629 >= 0
    x631 >= 0
    x632 >= 0
    x633 >= 0
    x634 >= 0
    x635 >= 0
    x636 >= 0
    x637 >= 0
    x638 >= 0
    x639 >= 0
    x641 >= 0
    x642 >= 0
    x643 >= 0
    x644 >= 0
    x645 >= 0
    x646 >= 0
    x647 >= 0
    x648 >= 0
    x649 >= 0
    x651 >= 0
    x652 >= 0
    x653 >= 0
    x654 >= 0
    x655 >= 0
    x656 >= 0
    x657 >= 0
    x658 >= 0
    x659 >= 0
    x711 >= 0
    x712 >= 0
    x713 >= 0
    x714 >= 0
    x715 >= 0
    x716 >= 0
    x717 >= 0
    x718 >= 0
    x719 >= 0
    x721 >= 0
    x722 >= 0
    x723 >= 0
    x724 >= 0
    x725 >= 0
    x726 >= 0
    x727 >= 0
    x728 >= 0
    x729 >= 0
    x731 >= 0
    x732 >= 0
    x733 >= 0
    x734 >= 0
    x735 >= 0
    x736 >= 0
    x737 >= 0
    x738 >= 0
    x739 >= 0
    x741 >= 0
    x742 >= 0
    x743 >= 0
    x744 >= 0
    x745 >= 0
    x746 >= 0
    x747 >= 0
    x748 >= 0
    x749 >= 0
    x751 >= 0
    x752 >= 0
    x753 >= 0
    x754 >= 0
    x755 >= 0
    x756 >= 0
    x757 >= 0
    x758 >= 0
    x759 >= 0
    x811 >= 0
    x812 >= 0
    x813 >= 0
    x814 >= 0
    x815 >= 0
    x816 >= 0
    x817 >= 0
    x818 >= 0
    x819 >= 0
    x821 >= 0
    x822 >= 0
    x823 >= 0
    x824 >= 0
    x825 >= 0
    x826 >= 0
    x827 >= 0
    x828 >= 0
    x829 >= 0
    x831 >= 0
    x832 >= 0
    x833 >= 0
    x834 >= 0
    x835 >= 0
    x836 >= 0
    x837 >= 0
    x838 >= 0
    x839 >= 0
    x841 >= 0
    x842 >= 0
    x843 >= 0
    x844 >= 0
    x845 >= 0
    x846 >= 0
    x847 >= 0
    x848 >= 0
    x849 >= 0
    x851 >= 0
    x852 >= 0
    x853 >= 0
    x854 >= 0
    x855 >= 0
    x856 >= 0
    x857 >= 0
    x858 >= 0
    x859 >= 0
    x911 >= 0
    x912 >= 0
    x913 >= 0
    x914 >= 0
    x915 >= 0
    x916 >= 0
    x917 >= 0
    x918 >= 0
    x919 >= 0
    x921 >= 0
    x922 >= 0
    x923 >= 0
    x924 >= 0
    x925 >= 0
    x926 >= 0
    x927 >= 0
    x928 >= 0
    x929 >= 0
    x931 >= 0
    x932 >= 0
    x933 >= 0
    x934 >= 0
    x935 >= 0
    x936 >= 0
    x937 >= 0
    x938 >= 0
    x939 >= 0
    x941 >= 0
    x942 >= 0
    x943 >= 0
    x944 >= 0
    x945 >= 0
    x946 >= 0
    x947 >= 0
    x948 >= 0
    x949 >= 0
    x951 >= 0
    x952 >= 0
    x953 >= 0
    x954 >= 0
    x955 >= 0
    x956 >= 0
    x957 >= 0
    x958 >= 0
    x959 >= 0
    c11 >= 0
    c12 >= 0
    c13 >= 0
    c14 >= 0
    c15 >= 0
    c21 >= 0
    c22 >= 0
    c23 >= 0
    c24 >= 0
    c25 >= 0
    c31 >= 0
    c32 >= 0
    c33 >= 0
    c34 >= 0
    c35 >= 0
    c41 >= 0
    c42 >= 0
    c43 >= 0
    c44 >= 0
    c45 >= 0
    c51 >= 0
    c52 >= 0
    c53 >= 0
    c54 >= 0
    c55 >= 0
    c61 >= 0
    c62 >= 0
    c63 >= 0
    c64 >= 0
    c65 >= 0
    c71 >= 0
    c72 >= 0
    c73 >= 0
    c74 >= 0
    c75 >= 0
    c81 >= 0
    c82 >= 0
    c83 >= 0
    c84 >= 0
    c85 >= 0
    c91 >= 0
    c92 >= 0
    c93 >= 0
    c94 >= 0
    c95 >= 0
    d11 >= 0
    d12 >= 0
    d13 >= 0
    d14 >= 0
    d15 >= 0
    d16 >= 0
    d17 >= 0
    d18 >= 0
    d19 >= 0
    d21 >= 0
    d22 >= 0
    d23 >= 0
    d24 >= 0
    d25 >= 0
    d26 >= 0
    d27 >= 0
    d28 >= 0
    d29 >= 0
    d31 >= 0
    d32 >= 0
    d33 >= 0
    d34 >= 0
    d35 >= 0
    d36 >= 0
    d37 >= 0
    d38 >= 0
    d39 >= 0
    d41 >= 0
    d42 >= 0
    d43 >= 0
    d44 >= 0
    d45 >= 0
    d46 >= 0
    d47 >= 0
    d48 >= 0
    d49 >= 0
    d51 >= 0
    d52 >= 0
    d53 >= 0
    d54 >= 0
    d55 >= 0
    d56 >= 0
    d57 >= 0
    d58 >= 0
    d59 >= 0
Binary
    u111
    u112
    u113
    u114
    u115
    u116
    u117
    u118
    u119
    u121
    u122
    u123
    u124
    u125
    u126
    u127
    u128
    u129
    u131
    u132
    u133
    u134
    u135
    u136
    u137
    u138
    u139
    u141
    u142
    u143
    u144
    u145
    u146
    u147
    u148
    u149
    u151
    u152
    u153
    u154
    u155
    u156
    u157
    u158
    u159
    u211
    u212
    u213
    u214
    u215
    u216
    u217
    u218
    u219
    u221
    u222
    u223
    u224
    u225
    u226
    u227
    u228
    u229
    u231
    u232
    u233
    u234
    u235
    u236
    u237
    u238
    u239
    u241
    u242
    u243
    u244
    u245
    u246
    u247
    u248
    u249
    u251
    u252
    u253
    u254
    u255
    u256
    u257
    u258
    u259
    u311
    u312
    u313
    u314
    u315
    u316
    u317
    u318
    u319
    u321
    u322
    u323
    u324
    u325
    u326
    u327
    u328
    u329
    u331
    u332
    u333
    u334
    u335
    u336
    u337
    u338
    u339
    u341
    u342
    u343
    u344
    u345
    u346
    u347
    u348
    u349
    u351
    u352
    u353
    u354
    u355
    u356
    u357
    u358
    u359
    u411
    u412
    u413
    u414
    u415
    u416
    u417
    u418
    u419
    u421
    u422
    u423
    u424
    u425
    u426
    u427
    u428
    u429
    u431
    u432
    u433
    u434
    u435
    u436
    u437
    u438
    u439
    u441
    u442
    u443
    u444
    u445
    u446
    u447
    u448
    u449
    u451
    u452
    u453
    u454
    u455
    u456
    u457
    u458
    u459
    u511
    u512
    u513
    u514
    u515
    u516
    u517
    u518
    u519
    u521
    u522
    u523
    u524
    u525
    u526
    u527
    u528
    u529
    u531
    u532
    u533
    u534
    u535
    u536
    u537
    u538
    u539
    u541
    u542
    u543
    u544
    u545
    u546
    u547
    u548
    u549
    u551
    u552
    u553
    u554
    u555
    u556
    u557
    u558
    u559
    u611
    u612
    u613
    u614
    u615
    u616
    u617
    u618
    u619
    u621
    u622
    u623
    u624
    u625
    u626
    u627
    u628
    u629
    u631
    u632
    u633
    u634
    u635
    u636
    u637
    u638
    u639
    u641
    u642
    u643
    u644
    u645
    u646
    u647
    u648
    u649
    u651
    u652
    u653
    u654
    u655
    u656
    u657
    u658
    u659
    u711
    u712
    u713
    u714
    u715
    u716
    u717
    u718
    u719
    u721
    u722
    u723
    u724
    u725
    u726
    u727
    u728
    u729
    u731
    u732
    u733
    u734
    u735
    u736
    u737
    u738
    u739
    u741
    u742
    u743
    u744
    u745
    u746
    u747
    u748
    u749
    u751
    u752
    u753
    u754
    u755
    u756
    u757
    u758
    u759
    u811
    u812
    u813
    u814
    u815
    u816
    u817
    u818
    u819
    u821
    u822
    u823
    u824
    u825
    u826
    u827
    u828
    u829
    u831
    u832
    u833
    u834
    u835
    u836
    u837
    u838
    u839
    u841
    u842
    u843
    u844
    u845
    u846
    u847
    u848
    u849
    u851
    u852
    u853
    u854
    u855
    u856
    u857
    u858
    u859
    u911
    u912
    u913
    u914
    u915
    u916
    u917
    u918
    u919
    u921
    u922
    u923
    u924
    u925
    u926
    u927
    u928
    u929
    u931
    u932
    u933
    u934
    u935
    u936
    u937
    u938
    u939
    u941
    u942
    u943
    u944
    u945
    u946
    u947
    u948
    u949
    u951
    u952
    u953
    u954
    u955
    u956
    u957
    u958
    u959
End